(set-logic QF_S)
(declare-fun var0 () String)
(declare-fun var1 () Int)
(declare-fun var2 () String)
(declare-fun var3 () Int)
(declare-fun var4 () String)
(declare-fun var5 () String)
(declare-fun var6 () Int)
(declare-fun var7 () Int)
(assert (<= (str.len (str.at var0 var1)) (str.indexof var2 "V|k`Jbs" var3)))
(assert (<= (str.to.int (str.replace var4 var5 var2)) (str.indexof var0 var0 var6)))
(assert (str.suffixof (str.substr var5 var7 153) (str.replace var2 var4 var4)))
(assert (str.in.re (str.substr (str.substr var4 var1 var3) (str.indexof var2 var4 var7) (str.to.int var5)) (re.* re.allchar)))
(check-sat)